NAME 
ROWS
 N  OBJ
 L  R0      
 L  R1      
 E  R2      
COLUMNS
    MARKER    'MARKER'                 'INTORG'
    I0(3)     OBJ       -316
    I0(3)     R0        -671
    I0(3)     R1        -451
    I0(3)     R2        803
    I1(3)     OBJ       -285
    I1(3)     R0        -359
    I1(3)     R1        -812
    I1(3)     R2        413
    I2(3)     OBJ       -241
    I2(3)     R0        -209
    I2(3)     R1        -457
    I2(3)     R2        842
    I3(3)     OBJ       -485
    I3(3)     R0        -535
    I3(3)     R1        -37
    I3(3)     R2        860
    I4(3)     OBJ       -376
    I4(3)     R0        -385
    I4(3)     R1        -443
    I4(3)     R2        150
    I5(3)     OBJ       -54
    I5(3)     R0        -845
    I5(3)     R1        -71
    I5(3)     R2        292
    I6(3)     OBJ       -571
    I6(3)     R0        -884
    I6(3)     R1        -448
    I6(3)     R2        294
    I7(3)     OBJ       -971
    I7(3)     R0        -462
    I7(3)     R1        -551
    I7(3)     R2        941
    I8(3)     OBJ       -516
    I8(3)     R0        -651
    I8(3)     R1        -942
    I8(3)     R2        312
    I9(3)     OBJ       -430
    I9(3)     R0        -773
    I9(3)     R1        -713
    I9(3)     R2        697
    I10(3)    OBJ       -409
    I10(3)    R0        -497
    I10(3)    R1        -172
    I10(3)    R2        247
    I11(3)    OBJ       -151
    I11(3)    R0        -967
    I11(3)    R1        -613
    I11(3)    R2        762
    I12(3)    OBJ       -587
    I12(3)    R0        -58
    I12(3)    R1        -71
    I12(3)    R2        508
    I13(3)    OBJ       -632
    I13(3)    R0        -737
    I13(3)    R1        -380
    I13(3)    R2        703
    I14(3)    OBJ       -614
    I14(3)    R0        -451
    I14(3)    R1        -147
    I14(3)    R2        799
    I15(3)    OBJ       -412
    I15(3)    R0        -434
    I15(3)    R1        -455
    I15(3)    R2        951
    I16(3)    OBJ       -108
    I16(3)    R0        -791
    I16(3)    R1        -225
    I16(3)    R2        773
    I17(3)    OBJ       -872
    I17(3)    R0        -21
    I17(3)    R1        -31
    I17(3)    R2        247
    I18(3)    OBJ       -265
    I18(3)    R0        -404
    I18(3)    R1        -917
    I18(3)    R2        501
    I19(3)    OBJ       -622
    I19(3)    R0        -307
    I19(3)    R1        -875
    I19(3)    R2        715
    I20(1)    R2        1
    MARKER    'MARKER'                 'INTEND'
RHS
    RHS1      R0        -5216
    RHS1      R1        -5789
    RHS1      R2        5905
BOUNDS
 UP BND1      I0(3)     1
 UP BND1      I1(3)     1
 UP BND1      I2(3)     1
 UP BND1      I3(3)     1
 UP BND1      I4(3)     1
 UP BND1      I5(3)     1
 UP BND1      I6(3)     1
 UP BND1      I7(3)     1
 UP BND1      I8(3)     1
 UP BND1      I9(3)     1
 UP BND1      I10(3)    1
 UP BND1      I11(3)    1
 UP BND1      I12(3)    1
 UP BND1      I13(3)    1
 UP BND1      I14(3)    1
 UP BND1      I15(3)    1
 UP BND1      I16(3)    1
 UP BND1      I17(3)    1
 UP BND1      I18(3)    1
 UP BND1      I19(3)    1
 LI BND1      I20(1)    0
ENDATA
